c "732180.clq"
p edge 100 1344
e 1 17
e 1 18
e 1 20
e 1 21
e 1 26
e 1 28
e 1 38
e 1 40
e 1 41
e 1 46
e 1 51
e 1 70
e 1 86
e 1 100
e 2 17
e 2 18
e 2 19
e 2 20
e 2 22
e 2 24
e 2 31
e 2 33
e 2 47
e 2 62
e 3 17
e 3 18
e 3 19
e 3 23
e 3 25
e 3 29
e 3 30
e 3 34
e 3 35
e 3 36
e 3 37
e 3 40
e 3 49
e 3 53
e 3 63
e 3 66
e 3 85
e 3 90
e 3 94
e 3 99
e 4 17
e 4 18
e 4 19
e 4 20
e 4 22
e 4 24
e 4 25
e 4 27
e 4 29
e 4 31
e 4 39
e 4 73
e 4 89
e 4 97
e 5 17
e 5 18
e 5 19
e 5 20
e 5 21
e 5 23
e 5 24
e 5 26
e 5 28
e 5 37
e 5 40
e 5 41
e 5 44
e 5 48
e 5 50
e 5 62
e 5 70
e 5 87
e 5 88
e 6 17
e 6 18
e 6 19
e 6 20
e 6 21
e 6 22
e 6 23
e 6 24
e 6 30
e 6 32
e 6 33
e 6 34
e 6 39
e 6 50
e 6 60
e 6 65
e 6 66
e 6 71
e 6 72
e 6 77
e 6 97
e 7 17
e 7 18
e 7 19
e 7 21
e 7 23
e 7 26
e 7 27
e 7 30
e 7 31
e 7 32
e 7 33
e 7 36
e 7 38
e 7 48
e 7 49
e 7 50
e 7 51
e 7 54
e 7 60
e 7 65
e 7 70
e 7 92
e 7 95
e 8 17
e 8 18
e 8 19
e 8 20
e 8 21
e 8 22
e 8 25
e 8 29
e 8 30
e 8 31
e 8 32
e 8 34
e 8 35
e 8 38
e 8 39
e 8 40
e 8 41
e 8 46
e 8 51
e 8 65
e 8 67
e 8 73
e 8 77
e 8 88
e 8 92
e 8 98
e 9 17
e 9 18
e 9 19
e 9 20
e 9 21
e 9 22
e 9 24
e 9 25
e 9 26
e 9 27
e 9 28
e 9 30
e 9 33
e 9 35
e 9 36
e 9 39
e 9 41
e 9 42
e 9 43
e 9 47
e 9 48
e 9 50
e 9 55
e 9 56
e 9 64
e 9 67
e 9 71
e 9 72
e 9 74
e 9 77
e 9 84
e 9 90
e 9 99
e 10 17
e 10 18
e 10 19
e 10 20
e 10 21
e 10 27
e 10 28
e 10 30
e 10 32
e 10 33
e 10 36
e 10 37
e 10 42
e 10 52
e 10 55
e 10 57
e 10 58
e 10 60
e 10 62
e 10 63
e 10 66
e 10 67
e 10 68
e 10 70
e 10 72
e 10 73
e 10 74
e 10 76
e 10 79
e 10 81
e 10 91
e 10 96
e 11 17
e 11 18
e 11 19
e 11 20
e 11 21
e 11 22
e 11 23
e 11 24
e 11 25
e 11 26
e 11 27
e 11 28
e 11 31
e 11 33
e 11 36
e 11 37
e 11 40
e 11 41
e 11 42
e 11 45
e 11 48
e 11 50
e 11 54
e 11 61
e 11 62
e 11 68
e 11 79
e 11 88
e 11 89
e 11 90
e 11 95
e 12 17
e 12 18
e 12 19
e 12 20
e 12 21
e 12 22
e 12 23
e 12 24
e 12 26
e 12 31
e 12 33
e 12 35
e 12 37
e 12 38
e 12 54
e 12 57
e 12 63
e 12 72
e 12 85
e 12 95
e 13 17
e 13 19
e 13 20
e 13 22
e 13 23
e 13 24
e 13 25
e 13 28
e 13 32
e 13 35
e 13 36
e 13 39
e 13 43
e 13 46
e 13 47
e 13 52
e 13 53
e 13 54
e 13 56
e 13 58
e 13 62
e 13 64
e 13 84
e 13 87
e 13 90
e 13 99
e 14 17
e 14 18
e 14 19
e 14 21
e 14 22
e 14 23
e 14 25
e 14 28
e 14 30
e 14 32
e 14 38
e 14 40
e 14 56
e 14 58
e 14 62
e 14 89
e 14 90
e 14 91
e 14 93
e 15 17
e 15 18
e 15 20
e 15 21
e 15 22
e 15 23
e 15 24
e 15 25
e 15 26
e 15 27
e 15 29
e 15 30
e 15 31
e 15 35
e 15 39
e 15 47
e 15 52
e 15 56
e 15 57
e 15 58
e 15 69
e 15 70
e 15 71
e 15 72
e 15 78
e 15 81
e 15 92
e 15 95
e 15 96
e 16 17
e 16 18
e 16 19
e 16 20
e 16 21
e 16 22
e 16 23
e 16 24
e 16 25
e 16 26
e 16 27
e 16 29
e 16 30
e 16 31
e 16 32
e 16 34
e 16 35
e 16 37
e 16 39
e 16 42
e 16 43
e 16 46
e 16 48
e 16 49
e 16 54
e 16 55
e 16 60
e 16 61
e 16 66
e 16 70
e 16 72
e 16 74
e 16 78
e 16 80
e 16 85
e 16 89
e 16 91
e 16 94
e 17 18
e 17 19
e 17 20
e 17 21
e 17 22
e 17 23
e 17 24
e 17 25
e 17 27
e 17 28
e 17 29
e 17 30
e 17 31
e 17 33
e 17 34
e 17 35
e 17 36
e 17 37
e 17 38
e 17 40
e 17 41
e 17 42
e 17 43
e 17 44
e 17 45
e 17 46
e 17 47
e 17 48
e 17 49
e 17 50
e 17 52
e 17 54
e 17 55
e 17 57
e 17 61
e 17 62
e 17 63
e 17 64
e 17 66
e 17 68
e 17 70
e 17 71
e 17 73
e 17 76
e 17 77
e 17 80
e 17 83
e 17 85
e 17 86
e 17 89
e 17 90
e 17 93
e 17 98
e 18 19
e 18 20
e 18 21
e 18 22
e 18 23
e 18 24
e 18 25
e 18 26
e 18 27
e 18 28
e 18 29
e 18 32
e 18 33
e 18 34
e 18 35
e 18 36
e 18 37
e 18 39
e 18 40
e 18 41
e 18 42
e 18 43
e 18 44
e 18 47
e 18 50
e 18 51
e 18 53
e 18 54
e 18 59
e 18 66
e 18 67
e 18 68
e 18 72
e 18 75
e 18 79
e 18 82
e 18 83
e 18 84
e 18 86
e 18 87
e 18 97
e 18 100
e 19 20
e 19 21
e 19 22
e 19 23
e 19 24
e 19 25
e 19 26
e 19 27
e 19 28
e 19 29
e 19 30
e 19 31
e 19 32
e 19 33
e 19 34
e 19 35
e 19 39
e 19 40
e 19 41
e 19 42
e 19 43
e 19 45
e 19 48
e 19 52
e 19 53
e 19 55
e 19 58
e 19 59
e 19 63
e 19 64
e 19 65
e 19 66
e 19 67
e 19 68
e 19 69
e 19 73
e 19 75
e 19 76
e 19 80
e 19 91
e 19 92
e 19 93
e 19 96
e 19 99
e 19 100
e 20 21
e 20 22
e 20 23
e 20 25
e 20 26
e 20 27
e 20 28
e 20 29
e 20 30
e 20 31
e 20 32
e 20 34
e 20 35
e 20 38
e 20 39
e 20 42
e 20 44
e 20 45
e 20 47
e 20 49
e 20 50
e 20 51
e 20 56
e 20 58
e 20 64
e 20 66
e 20 67
e 20 74
e 20 78
e 20 82
e 20 90
e 20 91
e 20 92
e 20 95
e 20 96
e 20 98
e 21 22
e 21 23
e 21 24
e 21 25
e 21 26
e 21 27
e 21 29
e 21 30
e 21 33
e 21 34
e 21 35
e 21 36
e 21 38
e 21 41
e 21 44
e 21 45
e 21 48
e 21 53
e 21 54
e 21 55
e 21 56
e 21 58
e 21 60
e 21 61
e 21 66
e 21 68
e 21 69
e 21 74
e 21 76
e 21 80
e 21 83
e 21 85
e 21 86
e 21 87
e 21 88
e 21 89
e 21 92
e 21 93
e 21 94
e 22 23
e 22 24
e 22 25
e 22 26
e 22 27
e 22 28
e 22 29
e 22 31
e 22 32
e 22 33
e 22 34
e 22 36
e 22 40
e 22 41
e 22 42
e 22 45
e 22 46
e 22 47
e 22 49
e 22 53
e 22 58
e 22 59
e 22 63
e 22 64
e 22 65
e 22 67
e 22 68
e 22 69
e 22 73
e 22 74
e 22 76
e 22 80
e 22 81
e 22 83
e 22 84
e 22 86
e 22 87
e 22 88
e 22 90
e 22 95
e 22 97
e 22 98
e 22 100
e 23 24
e 23 25
e 23 26
e 23 27
e 23 28
e 23 33
e 23 36
e 23 37
e 23 39
e 23 42
e 23 44
e 23 46
e 23 51
e 23 53
e 23 59
e 23 64
e 23 73
e 23 82
e 23 86
e 23 91
e 23 93
e 23 100
e 24 26
e 24 27
e 24 28
e 24 29
e 24 31
e 24 32
e 24 37
e 24 38
e 24 39
e 24 40
e 24 41
e 24 43
e 24 44
e 24 45
e 24 47
e 24 50
e 24 56
e 24 59
e 24 66
e 24 68
e 24 69
e 24 70
e 24 71
e 24 77
e 24 85
e 24 92
e 24 93
e 25 26
e 25 27
e 25 29
e 25 30
e 25 31
e 25 32
e 25 33
e 25 34
e 25 35
e 25 36
e 25 37
e 25 38
e 25 39
e 25 42
e 25 45
e 25 46
e 25 48
e 25 49
e 25 50
e 25 53
e 25 55
e 25 56
e 25 57
e 25 59
e 25 64
e 25 71
e 25 72
e 25 73
e 25 79
e 25 80
e 25 81
e 25 82
e 25 84
e 25 85
e 25 87
e 25 98
e 26 28
e 26 29
e 26 34
e 26 36
e 26 37
e 26 39
e 26 40
e 26 41
e 26 43
e 26 46
e 26 49
e 26 50
e 26 51
e 26 53
e 26 54
e 26 56
e 26 63
e 26 74
e 26 75
e 26 78
e 26 85
e 26 87
e 26 89
e 26 90
e 26 91
e 26 100
e 27 28
e 27 29
e 27 31
e 27 32
e 27 34
e 27 38
e 27 44
e 27 45
e 27 46
e 27 48
e 27 51
e 27 55
e 27 57
e 27 81
e 27 82
e 27 86
e 27 94
e 28 29
e 28 30
e 28 33
e 28 35
e 28 37
e 28 38
e 28 44
e 28 45
e 28 49
e 28 50
e 28 53
e 28 57
e 28 59
e 28 60
e 28 61
e 28 65
e 28 66
e 28 71
e 28 72
e 28 73
e 28 77
e 28 79
e 28 80
e 28 83
e 28 84
e 28 87
e 28 95
e 28 99
e 29 30
e 29 31
e 29 34
e 29 37
e 29 43
e 29 45
e 29 46
e 29 47
e 29 48
e 29 51
e 29 52
e 29 59
e 29 60
e 29 61
e 29 64
e 29 68
e 29 70
e 29 75
e 29 76
e 29 83
e 29 90
e 29 91
e 29 95
e 29 97
e 30 32
e 30 36
e 30 38
e 30 39
e 30 40
e 30 41
e 30 47
e 30 48
e 30 50
e 30 51
e 30 52
e 30 55
e 30 56
e 30 58
e 30 63
e 30 64
e 30 66
e 30 68
e 30 74
e 30 75
e 30 84
e 30 90
e 30 91
e 30 99
e 30 100
e 31 32
e 31 33
e 31 35
e 31 41
e 31 42
e 31 44
e 31 45
e 31 46
e 31 47
e 31 53
e 31 56
e 31 62
e 31 63
e 31 66
e 31 72
e 31 74
e 31 75
e 31 83
e 31 94
e 31 96
e 32 34
e 32 36
e 32 37
e 32 38
e 32 43
e 32 48
e 32 49
e 32 52
e 32 55
e 32 64
e 32 67
e 32 69
e 32 77
e 32 81
e 32 84
e 32 87
e 32 89
e 32 93
e 32 96
e 33 34
e 33 38
e 33 42
e 33 43
e 33 44
e 33 45
e 33 47
e 33 49
e 33 50
e 33 57
e 33 61
e 33 65
e 33 69
e 33 71
e 33 79
e 33 83
e 33 94
e 34 35
e 34 36
e 34 38
e 34 40
e 34 42
e 34 44
e 34 52
e 34 58
e 34 59
e 34 62
e 34 63
e 34 64
e 34 70
e 34 71
e 34 73
e 34 76
e 34 77
e 34 78
e 34 79
e 34 80
e 34 81
e 34 83
e 34 85
e 34 87
e 34 93
e 34 98
e 35 41
e 35 43
e 35 44
e 35 47
e 35 51
e 35 52
e 35 53
e 35 57
e 35 60
e 35 65
e 35 68
e 35 77
e 35 79
e 35 82
e 35 85
e 35 88
e 35 96
e 36 37
e 36 39
e 36 40
e 36 41
e 36 44
e 36 46
e 36 49
e 36 50
e 36 51
e 36 52
e 36 55
e 36 59
e 36 60
e 36 66
e 36 67
e 36 68
e 36 69
e 36 70
e 36 71
e 36 82
e 36 84
e 36 87
e 36 88
e 36 89
e 36 99
e 36 100
e 37 42
e 37 44
e 37 47
e 37 49
e 37 54
e 37 56
e 37 60
e 37 61
e 37 69
e 37 70
e 37 71
e 37 73
e 37 86
e 37 93
e 37 96
e 38 40
e 38 43
e 38 49
e 38 51
e 38 53
e 38 54
e 38 56
e 38 57
e 38 61
e 38 62
e 38 75
e 38 79
e 38 83
e 38 92
e 39 85
e 39 91
e 39 97
e 39 99
e 40 42
e 40 43
e 40 45
e 40 55
e 40 57
e 40 58
e 40 59
e 40 69
e 40 73
e 40 75
e 40 76
e 40 78
e 40 81
e 40 83
e 40 86
e 40 89
e 41 43
e 41 45
e 41 48
e 41 52
e 41 55
e 41 58
e 41 61
e 41 65
e 41 67
e 41 68
e 41 78
e 41 83
e 41 86
e 41 100
e 42 43
e 42 46
e 42 47
e 42 49
e 42 50
e 42 51
e 42 54
e 42 56
e 42 59
e 42 61
e 42 65
e 42 69
e 42 75
e 42 82
e 42 84
e 42 85
e 42 86
e 42 97
e 43 44
e 43 45
e 43 46
e 43 49
e 43 53
e 43 57
e 43 62
e 43 64
e 43 69
e 43 70
e 43 75
e 43 77
e 43 78
e 43 80
e 43 91
e 43 97
e 44 46
e 44 52
e 44 54
e 44 56
e 44 57
e 44 59
e 44 61
e 44 62
e 44 63
e 44 64
e 44 75
e 44 76
e 44 87
e 44 88
e 44 90
e 44 93
e 44 94
e 44 96
e 44 97
e 45 48
e 45 51
e 45 53
e 45 60
e 45 65
e 45 66
e 45 71
e 45 72
e 45 94
e 45 97
e 46 48
e 46 54
e 46 55
e 46 58
e 46 59
e 46 63
e 46 65
e 46 67
e 46 68
e 46 73
e 46 74
e 46 75
e 46 79
e 46 80
e 46 90
e 46 91
e 46 93
e 46 95
e 47 52
e 47 54
e 47 58
e 47 61
e 47 65
e 47 67
e 47 68
e 47 75
e 47 82
e 47 88
e 47 90
e 47 94
e 48 52
e 48 57
e 48 58
e 48 59
e 48 60
e 48 78
e 48 81
e 48 95
e 48 96
e 49 51
e 49 52
e 49 61
e 49 62
e 49 63
e 49 72
e 49 73
e 49 82
e 50 56
e 50 57
e 50 74
e 50 79
e 50 83
e 51 62
e 51 67
e 51 70
e 51 71
e 51 78
e 51 85
e 51 88
e 51 91
e 51 98
e 51 99
e 52 53
e 52 54
e 52 55
e 52 57
e 52 60
e 52 64
e 52 67
e 52 69
e 52 71
e 52 72
e 52 74
e 52 76
e 52 77
e 52 79
e 52 80
e 52 82
e 52 86
e 52 91
e 52 92
e 52 94
e 52 99
e 52 100
e 53 55
e 53 61
e 53 74
e 53 75
e 53 76
e 53 81
e 53 82
e 53 89
e 53 95
e 53 97
e 54 60
e 54 62
e 54 78
e 54 83
e 54 84
e 54 86
e 54 87
e 54 92
e 54 95
e 54 98
e 55 61
e 55 81
e 55 85
e 55 93
e 56 58
e 56 60
e 56 63
e 56 69
e 56 70
e 56 78
e 56 79
e 56 96
e 57 64
e 57 65
e 57 76
e 57 77
e 57 78
e 57 83
e 57 88
e 57 90
e 58 59
e 58 60
e 58 69
e 58 88
e 58 94
e 58 98
e 59 62
e 59 63
e 59 67
e 59 68
e 59 71
e 59 72
e 59 76
e 59 81
e 59 87
e 59 100
e 60 74
e 60 93
e 61 77
e 62 63
e 62 65
e 62 78
e 62 93
e 62 98
e 62 99
e 63 67
e 63 71
e 63 79
e 63 92
e 64 65
e 64 80
e 64 82
e 64 84
e 64 88
e 65 66
e 65 73
e 65 76
e 65 78
e 65 79
e 65 80
e 65 84
e 65 88
e 65 89
e 65 92
e 65 94
e 65 95
e 65 98
e 65 99
e 66 76
e 66 82
e 67 70
e 67 89
e 67 96
e 67 100
e 68 69
e 68 77
e 68 78
e 68 84
e 68 86
e 68 93
e 69 72
e 69 73
e 69 81
e 69 89
e 69 97
e 69 99
e 69 100
e 70 79
e 70 81
e 70 84
e 70 92
e 70 96
e 70 100
e 71 72
e 71 74
e 71 75
e 71 81
e 71 82
e 71 94
e 71 97
e 72 74
e 72 80
e 73 77
e 73 83
e 73 89
e 73 96
e 73 99
e 74 75
e 74 76
e 74 80
e 74 86
e 74 94
e 74 99
e 75 77
e 75 80
e 75 85
e 75 100
e 76 81
e 77 84
e 77 96
e 78 82
e 78 87
e 78 88
e 78 98
e 81 92
e 82 88
e 82 90
e 83 85
e 83 92
e 84 87
e 84 97
e 84 98
e 85 86
e 85 89
e 85 94
e 85 99
e 86 91
e 86 95
e 86 97
e 89 96
e 90 91
e 90 92
e 90 95
e 92 93
e 92 94
e 92 95
e 93 97
e 93 98
e 94 98
e 94 100
e 95 98
